\ Model RRP_copy
\ LP format - for model browsing. Use MPS format to capture full model detail.
Maximize
 
Subject To
 R0: xs_kim[0,1,0] + xod_k[0] = 1
 (4.5)[0,1,0]: - x_kimjn[0,1,0,2,0] + xs_kim[0,1,0] = 0
 R9: xod_k[0] = 0
 R10: 2 x_kimjn[0,1,0,2,0] = 0
Bounds
Binaries
 x_kimjn[0,1,0,2,0] xs_kim[0,1,0] xod_k[0]
End
